c Random 6-CNF over 30 variables and 60 clauses
c Generated with `cnfgen`
c (C) 2012-2016 Massimo Lauria <lauria.massimo@gmail.com>
c https://massimolauria.github.io/cnfgen
c
c COMMAND LINE: cnfgen --output tmp-6-30-60.dimacs --output-format dimacs randkcnf 6 30 60
c
c sdimacs generated by gen-sdimacs
c
p cnf 30 60
r 0.5 1 2 3 4 5 6 7 8 9 10 11 12 13 14 15 0
e  16 17 18 19 20 21 22 23 24 25 26 27 28 29 30 0
11 15 17 25 -27 28 0
-5 -6 11 -17 -18 28 0
-5 -8 -16 -17 -20 -21 0
4 -5 10 -16 22 24 0
-11 14 18 19 -26 -27 0
5 7 -10 -11 -18 23 0
-3 -14 15 -18 21 -30 0
-8 13 16 18 19 30 0
-7 -8 9 -10 21 -30 0
-2 9 -11 15 17 25 0
-2 -3 11 12 -20 28 0
9 -15 -18 -24 26 -27 0
-12 13 -17 -18 -20 -22 0
2 9 12 -24 25 -29 0
4 5 -7 -23 26 -27 0
1 -3 5 17 -21 29 0
-6 8 -19 -23 25 26 0
-1 8 9 16 18 -30 0
-2 7 -11 -22 27 -30 0
3 4 11 -12 -14 -26 0
3 4 16 -22 23 -28 0
2 3 11 -12 -18 -20 0
14 -17 -18 -24 -26 -30 0
1 -11 -13 -23 -24 -28 0
2 -4 -5 -11 13 27 0
7 8 13 24 27 -28 0
-4 6 8 19 23 26 0
-11 12 13 -19 -27 -28 0
6 -7 9 -10 18 28 0
1 4 8 11 -28 -29 0
-1 5 -11 12 27 28 0
4 -6 -12 14 -15 -22 0
7 -13 -16 22 -27 -29 0
1 11 -13 16 20 -30 0
-10 11 19 -20 -25 29 0
8 -9 -15 -17 19 27 0
-2 -16 -17 18 -22 25 0
10 13 19 -20 -25 -27 0
1 7 -20 23 29 -30 0
3 5 10 -19 -20 29 0
-4 -8 11 15 17 -22 0
3 5 7 9 17 19 0
-2 -5 -6 -17 -29 -30 0
-2 4 -15 -18 -19 -28 0
-9 -10 -13 15 -27 28 0
-2 10 11 17 26 28 0
-3 9 -14 -17 -19 22 0
5 -6 -8 -22 -24 -29 0
-3 4 6 8 16 28 0
8 -11 12 -14 -28 -29 0
8 14 19 24 26 -30 0
7 -18 -21 22 -23 -24 0
-3 -11 19 24 -28 30 0
-6 11 -14 -17 -21 24 0
-2 -5 12 15 -21 -29 0
3 8 -16 -21 -23 -25 0
8 16 -18 -19 -23 -30 0
-9 10 15 -20 23 28 0
-1 -4 -7 10 22 -23 0
2 5 -6 21 -22 -26 0
